COLUMNS

passenger_count
pickup_ID
dropoff_ID
request_time_sec
pickup_district
LDuals
IDuals
vehicle_ID
pick_position
drop_position
REQUESTS_INFO
3      579       991       68347     189       241       241       39        1         3         
2      698       510       68363     189       182       189       77        1         3         
1      623       892       68296     280       191       191       78        1         4         
2      717       346       68238     189       321       321       82        1         3         
1      647       814       68327     280       239       239       90        1         2         
1      459       914       68301     189       217       207       95        1         3         
1      604       721       68324     189       217       212       113       1         4         
3      605       788       68273     189       323       328       113       2         3         
2      394       505       68355     100       179       179       121       1         3         
3      654       769       68349     189       212       212       150       1         2         
3      603       692       68259     189       313       313       152       1         2         
3      35        811       68355     98        133       133       175       1         2         
1      653       483       68298     189       269       217       253       1         5         
1      436       875       68363     100       134       124       259       1         3         
2      533       396       68229     199       326       331       267       1         2         
1      461       771       68325     189       230       230       310       1         2         
1      62        733       68341     98        148       148       363       1         4         
1      46        304       68369     98        161       161       363       2         3         
1      694       440       68351     189       221       224       365       1         2         
2      454       286       68359     52        134       134       405       1         3         
1      558       959       68323     189       186       186       436       1         4         
1      397       504       68321     168       192       192       467       1         3         
2      488       9         68363     199       220       218       472       1         3         
1      606       768       68353     189       173       173       521       1         3         
1      644       951       68367     131       165       175       541       1         3         
1      696       817       68326     189       153       153       556       1         3         
2      715       499       68320     131       223       223       557       1         3         
4      462       622       68351     189       191       197       565       1         2         
3      674       457       68178     189       400       411       590       1         2         
1      696       692       68351     189       173       173       605       1         2         
1      599       215       68348     280       189       189       631       1         4         
1      552       180       68327     189       257       252       660       1         2         
1      736       675       68360     131       190       188       686       1         2         
1      371       653       68314     52        218       218       691       1         2         
2      699       464       68310     290       197       197       718       1         3         
1      700       924       68368     290       160       157       797       1         4         
1      397       1137      68361     168       152       152       823       1         3         
2      352       376       68360     119       127       127       843       1         2         
1      437       484       68348     100       179       169       888       1         2         
3      737       1021      68346     189       155       155       936       1         3         
2      577       395       68347     189       212       212       1011      1         2         
1      630       511       68289     189       246       246       1031      1         2         
3      649       690       68318     189       251       256       1078      1         2         
1      628       551       68326     189       196       196       1103      1         4         
1      719       579       68312     189       227       227       1123      1         3         
2      605       476       68232     189       364       369       1138      1         2         
1      434       735       68302     52        207       207       1186      1         3         
1      117       303       68362     286       128       128       1198      1         2         
1      597       369       68353     131       164       164       1214      1         3         
1      499       913       68361     52        96        96        1238      1         3         
1      626       598       68353     189       238       240       1240      1         4         
1      581       747       68288     189       273       268       1244      1         4         
1      647       946       68314     280       252       252       1247      1         2         
3      739       433       68104     189       421       421       1264      1         3         
3      535       665       68288     189       293       299       1292      1         2         
1      700       860       68281     290       258       269       1296      1         3         
3      655       631       68353     189       188       188       1343      1         2         
1      434       438       68364     52        145       145       1356      1         2         
1      675       814       68341     189       183       188       1364      1         3         
2      837       633       68357     290       111.5     108       1376      1         3         
1      628       414       68364     189       143       144       1384      1         4         
1      716       1001      68280     189       265       265       1499      1         2         
3      529       737       68362     189       199       199       1547      1         3         
1      581       356       68351     189       197       197       1564      1         2         
1      674       372       68253     189       281       282       1678      1         2         
1      535       759       68369     189       128       128       1720      1         4         
1      643       522       68318     131       190       190       1739      1         3         
1      677       418       68357     189       164       148       1744      1         4         
1      554       545       68340     189       207       207       1783      1         4         
2      511       804       68345     199       218       213       1803      1         4         
1      721       936       68363     290       161       161       1808      1         3         
4      760       437       68308     291       232       240       1819      1         2         
3      699       669       68314     290       252       252       1860      1         2         
4      533       527       68281     199       274       279       1878      1         2         
1      555       842       68369     199       127       127       1892      1         5         
2      715       1171      68348     131       195       195       1894      1         3         
1      608       602       68286     189       251       233       1942      1         4         
1      718       874       68344     189       189       189       1965      1         4         
1      717       687       68355     189       189       189       1965      2         3         
1      946       356       68364     290       91        91        1987      1         2         
2      623       666       68176     280       393       393       2073      1         3         
1      419       10        68353     168       140       140       2099      1         3         
3      581       1012      68339     189       240       245       2119      1         2         
2      627       437       68327     189       226       226       2129      1         2         
3      727       647       68314     290       188       188       2156      1         2         
2      529       737       68362     189       199       199       2196      1         4         
1      508       672       68350     199       171       171       2222      1         2         
1      722       778       68353     290       173       172       2283      1         3         
3      579       991       68347     189       241       241       2304      1         3         
1      536       573       68312     189       269       267       2372      1         2         
3      581       1012      68339     189       226       226       2384      1         3         
3      511       804       68345     199       218       213       2418      1         3         
1      766       850       68343     290       158       165       2419      1         3         
2      526       509       68342     52        161       161       2434      1         3         
3      674       839       68260     189       318       329       2488      1         2         
1      60        296       68370     9         0         0         0         0         0         
1      739       745       68370     189       0         0         0         0         0         
1      419       295       68370     168       0         0         0         0         0         
1      156       269       68370     286       0         0         0         0         0         
1      328       556       68370     299       0         0         0         0         0         
1      455       594       68371     52        0         0         0         0         0         
1      332       317       68371     87        0         0         0         0         0         
2      48        393       68371     98        0         0         0         0         0         
2      1106      915       68372     291       0         0         0         0         0         
1      606       395       68372     189       0         0         0         0         0         
1      556       335       68372     199       0         0         0         0         0         
1      858       817       68373     290       0         0         0         0         0         
1      176       555       68373     174       0         0         0         0         0         
1      499       286       68373     52        0         0         0         0         0         
3      847       396       68373     291       0         0         0         0         0         
2      549       532       68373     52        0         0         0         0         0         
1      722       557       68373     290       0         0         0         0         0         
1      189       662       68373     286       0         0         0         0         0         
2      331       305       68374     127       0         0         0         0         0         
1      755       531       68374     131       0         0         0         0         0         
1      439       875       68374     189       0         0         0         0         0         
1      430       509       68374     52        0         0         0         0         0         
1      461       545       68374     189       0         0         0         0         0         
1      626       584       68374     189       0         0         0         0         0         
2      269       647       68374     127       0         0         0         0         0         
1      600       758       68374     280       0         0         0         0         0         
1      950       747       68375     290       0         0         0         0         0         
1      336       584       68375     277       0         0         0         0         0         
2      534       850       68375     199       0         0         0         0         0         
1      1048      905       68375     291       0         0         0         0         0         
1      606       724       68376     189       0         0         0         0         0         
1      850       765       68376     291       0         0         0         0         0         
1      885       1391      68376     290       0         0         0         0         0         
1      694       678       68376     189       0         0         0         0         0         
1      549       745       68376     52        0         0         0         0         0         
1      549       444       68377     52        0         0         0         0         0         
1      959       1001      68377     291       0         0         0         0         0         
3      399       984       68377     168       0         0         0         0         0         
1      627       757       68377     189       0         0         0         0         0         
1      571       475       68377     52        0         0         0         0         0         
1      632       887       68377     189       0         0         0         0         0         
2      747       858       68377     290       0         0         0         0         0         
2      399       984       68377     168       0         0         0         0         0         
3      370       357       68377     52        0         0         0         0         0         
2      370       357       68377     52        0         0         0         0         0         
1      117       35        68378     286       0         0         0         0         0         
2      526       365       68378     52        0         0         0         0         0         
1      710       697       68378     131       0         0         0         0         0         
3      780       815       68379     291       0         0         0         0         0         
1      372       678       68379     119       0         0         0         0         0         
2      630       415       68379     189       0         0         0         0         0         
1      452       555       68379     52        0         0         0         0         0         
1      1021      906       68379     291       0         0         0         0         0         
1      696       835       68379     189       0         0         0         0         0         
2      837       903       68379     290       0         0         0         0         0         
3      780       815       68379     291       0         0         0         0         0         
1      1592      1001      68379     296       0         0         0         0         0         
1      621       687       68379     280       0         0         0         0         0         
2      650       719       68379     189       0         0         0         0         0         
1      736       557       68379     131       0         0         0         0         0         
3      630       415       68379     189       0         0         0         0         0         
1      805       481       68379     291       0         0         0         0         0         
3      929       9         68380     290       0         0         0         0         0         
2      862       874       68380     290       0         0         0         0         0         
1      354       257       68380     119       0         0         0         0         0         
2      314       500       68380     119       0         0         0         0         0         
1      691       850       68380     131       0         0         0         0         0         
1      722       903       68380     290       0         0         0         0         0         
1      295       726       68380     87        0         0         0         0         0         
2      929       9         68380     290       0         0         0         0         0         
1      924       1002      68380     290       0         0         0         0         0         
1      216       213       68381     178       0         0         0         0         0         
1      352       421       68382     119       0         0         0         0         0         
1      554       623       68383     189       0         0         0         0         0         
1      573       1211      68383     189       0         0         0         0         0         
3      481       647       68383     189       0         0         0         0         0         
2      481       647       68383     189       0         0         0         0         0         
3      602       455       68383     189       0         0         0         0         0         
3      602       455       68383     189       0         0         0         0         0         
1      948       720       68383     290       0         0         0         0         0         
3      984       893       68384     291       0         0         0         0         0         
2      984       893       68384     291       0         0         0         0         0         
2      354       486       68384     119       0         0         0         0         0         
3      354       486       68384     119       0         0         0         0         0         
2      509       505       68384     199       0         0         0         0         0         
1      771       654       68384     290       0         0         0         0         0         
3      663       45        68384     131       0         0         0         0         0         
1      739       893       68384     189       0         0         0         0         0         
1      860       926       68384     290       0         0         0         0         0         
1      248       233       68384     266       0         0         0         0         0         
1      960       1044      68384     291       0         0         0         0         0         
1      735       458       68384     131       0         0         0         0         0         
2      527       440       68384     52        0         0         0         0         0         
3      696       529       68384     189       0         0         0         0         0         
2      696       529       68384     189       0         0         0         0         0         
1      606       883       68384     189       0         0         0         0         0         
4      159       273       68385     54        0         0         0         0         0         
1      671       439       68385     280       0         0         0         0         0         
1      526       885       68385     52        0         0         0         0         0         
1      647       1046      68385     280       0         0         0         0         0         
1      671       816       68385     280       0         0         0         0         0         
1      743       860       68385     290       0         0         0         0         0         
1      882       673       68385     290       0         0         0         0         0         
1      837       928       68386     290       0         0         0         0         0         
2      452       578       68386     52        0         0         0         0         0         
1      668       353       68386     280       0         0         0         0         0         
1      465       371       68386     199       0         0         0         0         0         
1      499       666       68387     52        0         0         0         0         0         
2      802       727       68387     291       0         0         0         0         0         
1      507       312       68387     189       0         0         0         0         0         
1      771       914       68387     290       0         0         0         0         0         
1      1360      848       68387     129       0         0         0         0         0         
1      745       816       68388     290       0         0         0         0         0         
1      662       535       68388     131       0         0         0         0         0         
2      393       504       68388     52        0         0         0         0         0         
1      1032      991       68388     84        0         0         0         0         0         
3      928       527       68389     290       0         0         0         0         0         
3      928       527       68389     290       0         0         0         0         0         
1      906       1002      68389     290       0         0         0         0         0         
2      745       790       68389     290       0         0         0         0         0         
1      743       418       68389     290       0         0         0         0         0         
1      459       527       68389     189       0         0         0         0         0         
1      375       192       68389     119       0         0         0         0         0         
3      553       804       68390     189       0         0         0         0         0         
3      553       804       68390     189       0         0         0         0         0         
3      413       547       68390     52        0         0         0         0         0         
2      578       671       68390     189       0         0         0         0         0         
1      460       367       68390     189       0         0         0         0         0         
1      1011      862       68390     84        0         0         0         0         0         
3      413       547       68390     52        0         0         0         0         0         
1      435       906       68390     52        0         0         0         0         0         
1      527       419       68391     52        0         0         0         0         0         
1      937       873       68391     291       0         0         0         0         0         
1      416       559       68391     100       0         0         0         0         0         
1      369       476       68391     52        0         0         0         0         0         
3      662       690       68392     131       0         0         0         0         0         
3      662       690       68392     131       0         0         0         0         0         
2      531       642       68392     189       0         0         0         0         0         
3      531       642       68392     189       0         0         0         0         0         
3      510       555       68392     199       0         0         0         0         0         
1      1218      947       68392     84        0         0         0         0         0         
1      718       840       68392     189       0         0         0         0         0         
1      644       928       68392     131       0         0         0         0         0         
1      466       747       68392     199       0         0         0         0         0         
1      969       608       68392     290       0         0         0         0         0         
1      377       631       68392     168       0         0         0         0         0         
3      414       1011      68393     100       0         0         0         0         0         
3      662       329       68393     131       0         0         0         0         0         
1      78        9         68394     9         0         0         0         0         0         
1      887       1120      68394     290       0         0         0         0         0         
2      163       418       68394     178       0         0         0         0         0         
2      630       376       68394     189       0         0         0         0         0         
1      621       710       68394     280       0         0         0         0         0         
1      232       134       68394     266       0         0         0         0         0         
2      253       601       68394     206       0         0         0         0         0         
1      573       603       68394     189       0         0         0         0         0         
1      191       621       68395     266       0         0         0         0         0         
1      981       970       68395     291       0         0         0         0         0         
1      523       418       68395     52        0         0         0         0         0         
1      618       152       68396     131       0         0         0         0         0         
3      897       643       68396     291       0         0         0         0         0         
1      675       947       68396     189       0         0         0         0         0         
1      1140      1120      68397     84        0         0         0         0         0         
2      770       861       68397     290       0         0         0         0         0         
1      549       906       68397     52        0         0         0         0         0         
1      927       701       68397     290       0         0         0         0         0         
1      937       827       68398     291       0         0         0         0         0         
2      411       307       68398     52        0         0         0         0         0         
2      693       1020      68398     280       0         0         0         0         0         
1      863       372       68398     290       0         0         0         0         0         
1      21        354       68399     98        0         0         0         0         0         
1      213       309       68399     266       0         0         0         0         0         
2      668       527       68399     280       0         0         0         0         0         
1      288       172       68399     127       0         0         0         0         0         
1      735       391       68399     131       0         0         0         0         0         
3      668       527       68399     280       0         0         0         0         0         
